unsat
(:added-eqs                       449231
 :arith-eq-adapter                1058
 :arith-bound-propagations-lp     20887
 :arith-branch                    33
 :arith-conflicts                 7527
 :arith-cube-calls                17
 :arith-diseq                     60921
 :arith-fixed-eqs                 37052
 :arith-gcd-calls                 444
 :arith-gomory-cuts               17
 :arith-grobner-calls             754
 :arith-grobner-conflicts         207
 :arith-hnf-calls                 5
 :arith-horner-calls              214
 :arith-horner-conflicts          2
 :arith-horner-cross-nested-forms 15296
 :arith-lower                     175517
 :arith-make-feasible             57005
 :arith-max-columns               901
 :arith-max-rows                  447
 :arith-nla-add-bounds            138
 :arith-nla-lemmas                2220
 :arith-nla-propagate-bounds      1264
 :arith-nla-propagate-eq          111503
 :arith-nra-calls                 78
 :arith-offset-eqs                49650
 :arith-patches                   444
 :arith-patches-success           382
 :arith-upper                     238892
 :binary-propagations             1030062
 :card2bv-rewrites                1
 :cnf-encoding-aux-vars           2
 :conflicts                       13442
 :decisions                       146749
 :del-clause                      18282
 :elim-unconstrained              50
 :final-checks                    1609
 :max-memory                      122.08
 :memory                          92.03
 :minimized-lits                  58167
 :mk-bool-var                     8325
 :mk-clause                       24783
 :mk-clause-binary                9797
 :nlsat-conflicts                 8557
 :nlsat-decisions                 1284
 :nlsat-propagations              295200
 :nlsat-restarts                  1
 :nlsat-stages                    130290
 :num-allocs                      7478759933.00
 :num-checks                      2
 :propagations                    1657500
 :restarts                        94
 :rlimit-count                    12829990
 :sat-mk-clause-2ary              30533
 :sat-mk-clause-nary              42198
 :sat-mk-var                      20887
 :solve-eqs-elim-vars             59
 :solve-eqs-steps                 954
 :time                            9.61
 :total-time                      9.62)
